<number of tasks>
89

<cycle time>
83

<task times>
1 28
2 17
3 7
4 10
5 12
6 16
7 13
8 8
9 13
10 24
11 16
12 24
13 12
14 20
15 22
16 22
17 22
18 47
19 6
20 12
21 6
22 22
23 7
24 14
25 68
26 15
27 8
28 74
29 32
30 11
31 18
32 15
33 42
34 27
35 38
36 38
37 26
38 35
39 31
40 8
41 14
42 8
43 8
44 8
45 17
46 7
47 19
48 12
49 24
50 26
51 22
52 14
53 27
54 60
55 4
56 2
57 1
58 9
59 5
60 6
61 7
62 12
63 2
64 11
65 14
66 6
67 21
68 14
69 1
70 6
71 21
72 11
73 14
74 28
75 12
76 11
77 30
78 22
79 14
80 31
81 18
82 16
83 7
84 38
85 8
86 31
87 29
88 12
89 18

<precedence relations>
1,2
2,3
3,4
4,5
4,6
4,7
4,8
4,9
5,10
6,11
7,12
8,18
9,18
10,14
11,12
12,13
13,14
14,15
14,16
15,17
16,54
17,18
18,19
18,20
19,22
20,21
20,28
21,54
22,23
23,24
24,25
25,26
25,27
25,29
26,37
27,33
28,29
29,31
30,54
31,32
32,33
33,34
34,35
35,36
35,37
36,38
37,38
38,39
39,40
39,41
39,42
39,43
40,44
41,53
42,53
43,45
44,52
45,46
46,47
47,48
47,49
49,50
50,51
51,52
52,53
53,68
53,69
53,70
53,71
54,55
55,56
56,57
57,58
57,59
57,60
57,61
57,62
57,63
57,64
57,65
57,66
58,67
59,67
60,67
61,67
62,67
63,67
64,67
65,67
66,67
67,73
68,72
69,72
70,72
71,73
72,78
72,80
73,74
74,75
74,76
75,77
76,81
77,78
78,79
79,81
80,81
81,82
81,84
81,85
82,83
83,86
84,86
85,86
86,87
87,88
87,89

<setup times forward>
1,30:2
2,30:2
3,30:2
4,5:3
4,7:3
4,8:1
4,9:2
4,30:2
5,6:3
5,8:2
5,9:5
5,10:5
5,30:1
6,5:3
6,7:3
6,8:1
6,9:2
6,10:2
6,11:3
6,30:2
7,6:3
7,8:2
7,9:5
7,10:5
7,30:1
8,5:2
8,6:1
8,7:2
8,9:3
8,10:3
8,11:2
8,12:2
8,13:2
8,14:3
8,15:3
8,30:1
9,5:5
9,6:2
9,7:5
9,8:3
9,11:5
9,12:5
9,13:5
9,16:3
9,17:3
9,18:3
9,30:4
10,6:2
10,7:5
10,8:3
10,11:5
10,12:5
10,13:5
10,30:4
11,8:2
11,9:5
11,10:5
11,30:1
12,8:2
12,9:5
12,10:5
12,30:1
13,8:2
13,9:5
13,10:5
13,14:5
13,30:1
14,8:3
14,16:3
14,30:4
15,8:3
15,16:3
15,17:3
15,30:4
16,9:3
16,15:3
16,25:3
16,26:4
16,27:3
16,28:1
16,29:4
16,30:1
16,31:4
16,32:4
16,33:1
16,34:1
16,35:3
16,36:3
16,37:5
16,38:5
16,39:2
16,41:6
16,42:1
16,43:2
16,45:2
16,46:2
16,47:2
16,48:1
16,49:1
16,50:1
16,51:1
16,52:5
16,53:5
16,68:5
16,69:5
16,70:2
16,71:2
16,72:2
16,80:2
17,9:3
17,30:1
18,30:1
19,28:1
19,30:1
19,58:6
19,59:6
19,60:5
19,61:6
19,62:6
19,63:1
19,64:6
19,65:6
19,66:6
19,67:5
20,25:3
20,26:4
20,27:3
20,28:1
20,30:1
21,25:3
21,26:4
21,27:3
21,28:1
21,29:4
21,30:1
21,31:4
21,32:4
21,33:1
21,34:1
21,35:3
21,36:3
21,37:5
21,38:5
21,39:2
21,41:6
21,42:1
21,43:2
21,45:2
21,46:2
21,47:2
21,48:1
21,49:1
21,50:1
21,51:1
21,52:5
21,53:5
21,68:5
21,69:5
21,70:2
21,71:2
21,72:2
21,80:2
22,28:1
22,30:1
22,58:6
22,59:6
22,60:5
22,61:6
22,62:6
22,63:1
22,64:6
22,65:6
22,66:6
22,67:5
23,28:1
23,30:1
23,58:6
23,59:6
23,60:5
23,61:6
23,62:6
23,63:1
23,64:6
23,65:6
23,66:6
23,67:5
24,25:3
24,28:1
24,30:1
24,58:6
24,59:6
24,60:5
24,61:6
24,62:6
24,63:1
24,64:6
24,65:6
24,66:6
24,67:5
25,16:3
25,20:3
25,21:3
25,26:1
25,28:2
25,29:1
25,30:4
25,54:3
25,55:3
25,56:3
25,57:3
25,58:3
25,59:3
25,60:2
25,61:3
25,62:3
25,63:4
25,64:3
25,65:3
25,66:3
25,67:2
26,16:4
26,20:4
26,21:4
26,27:1
26,28:3
26,30:5
26,33:5
26,34:5
26,35:1
26,36:1
26,37:1
26,54:4
26,55:4
26,56:4
26,57:4
26,58:2
26,59:2
26,60:1
26,61:2
26,62:2
26,63:5
26,64:2
26,65:2
26,66:2
26,67:1
27,16:3
27,20:3
27,21:3
27,26:1
27,28:2
27,29:1
27,30:4
27,31:1
27,32:1
27,33:4
27,54:3
27,55:3
27,56:3
27,57:3
27,58:3
27,59:3
27,60:2
27,61:3
27,62:3
27,63:4
27,64:3
27,65:3
27,66:3
27,67:2
28,16:1
28,19:1
28,21:1
28,22:1
28,23:1
28,24:1
28,25:2
28,26:3
28,27:2
28,29:3
28,30:2
28,54:1
28,55:1
28,56:1
28,57:1
28,58:5
28,59:5
28,60:4
28,61:5
28,62:5
28,63:2
28,64:5
28,65:5
28,66:5
28,67:4
29,16:4
29,21:4
29,27:1
29,30:5
29,54:4
29,55:4
29,56:4
29,57:4
29,58:2
29,59:2
29,60:1
29,61:2
29,62:2
29,63:5
29,64:2
29,65:2
29,66:2
29,67:1
30,1:2
30,2:2
30,3:2
30,4:2
30,5:1
30,6:2
30,7:1
30,8:1
30,9:4
30,10:4
30,11:1
30,12:1
30,13:1
30,14:4
30,15:4
30,16:1
30,17:1
30,18:1
30,19:1
30,20:1
30,21:1
30,22:1
30,23:1
30,24:1
30,25:4
30,26:5
30,27:4
30,28:2
30,29:5
30,31:5
30,32:5
30,35:4
30,36:4
30,37:6
30,38:6
30,39:3
30,40:1
30,41:7
30,43:3
30,44:1
30,45:3
30,46:3
30,47:3
30,52:6
30,53:6
30,54:1
30,68:6
30,69:6
30,70:1
30,71:1
30,72:1
30,80:1
31,16:4
31,21:4
31,27:1
31,30:5
31,54:4
31,55:4
31,56:4
31,57:4
31,58:2
31,59:2
31,60:1
31,61:2
31,62:2
31,63:5
31,64:2
31,65:2
31,66:2
31,67:1
32,16:4
32,21:4
32,27:1
32,30:5
32,33:5
32,54:4
32,55:4
32,56:4
32,57:4
32,58:2
32,59:2
32,60:1
32,61:2
32,62:2
32,63:5
32,64:2
32,65:2
32,66:2
32,67:1
33,16:1
33,21:1
33,26:5
33,54:1
33,55:1
33,56:1
33,57:1
33,58:7
33,59:7
33,60:6
33,61:7
33,62:7
33,64:7
33,65:7
33,66:7
33,67:6
34,16:1
34,21:1
34,26:5
34,35:4
34,54:1
34,55:1
34,56:1
34,57:1
34,58:7
34,59:7
34,60:6
34,61:7
34,62:7
34,64:7
34,65:7
34,66:7
34,67:6
35,16:3
35,21:3
35,26:1
35,30:4
35,37:2
35,54:3
35,55:3
35,56:3
35,57:3
35,58:3
35,59:3
35,60:2
35,61:3
35,62:3
35,63:4
35,64:3
35,65:3
35,66:3
35,67:2
36,16:3
36,21:3
36,26:1
36,30:4
36,37:2
36,38:2
36,54:3
36,55:3
36,56:3
36,57:3
36,58:3
36,59:3
36,60:2
36,61:3
36,62:3
36,63:4
36,64:3
36,65:3
36,66:3
36,67:2
37,16:5
37,21:5
37,30:6
37,36:2
37,54:5
37,55:5
37,56:5
37,57:5
37,58:1
37,59:1
37,61:1
37,62:1
37,63:6
37,64:1
37,65:1
37,66:1
38,16:5
38,21:5
38,30:6
38,39:3
38,54:5
38,55:5
38,56:5
38,57:5
38,58:1
38,59:1
38,61:1
38,62:1
38,63:6
38,64:1
38,65:1
38,66:1
39,16:2
39,21:2
39,30:3
39,40:2
39,41:4
39,42:3
39,54:2
39,55:2
39,56:2
39,57:2
39,58:4
39,59:4
39,60:3
39,61:4
39,62:4
39,63:3
39,64:4
39,65:4
39,66:4
39,67:3
40,30:1
40,41:6
40,42:1
40,43:2
40,45:2
40,46:2
40,47:2
40,48:1
40,49:1
40,50:1
40,51:1
40,58:6
40,59:6
40,60:5
40,61:6
40,62:6
40,63:1
40,64:6
40,65:6
40,66:6
40,67:5
41,16:6
41,21:6
41,30:7
41,40:6
41,42:7
41,43:4
41,44:6
41,45:4
41,46:4
41,47:4
41,48:7
41,49:7
41,50:7
41,51:7
41,52:1
41,53:1
41,54:6
41,55:6
41,56:6
41,57:6
41,60:1
41,63:7
41,67:1
42,16:1
42,21:1
42,40:1
42,41:7
42,43:3
42,44:1
42,45:3
42,46:3
42,47:3
42,52:6
42,53:6
42,54:1
42,55:1
42,56:1
42,57:1
42,58:7
42,59:7
42,60:6
42,61:7
42,62:7
42,64:7
42,65:7
42,66:7
42,67:6
43,16:2
43,21:2
43,30:3
43,40:2
43,41:4
43,42:3
43,44:2
43,54:2
43,55:2
43,56:2
43,57:2
43,58:4
43,59:4
43,60:3
43,61:4
43,62:4
43,63:3
43,64:4
43,65:4
43,66:4
43,67:3
44,30:1
44,41:6
44,42:1
44,43:2
44,45:2
44,46:2
44,47:2
44,48:1
44,49:1
44,50:1
44,51:1
44,52:5
44,58:6
44,59:6
44,60:5
44,61:6
44,62:6
44,63:1
44,64:6
44,65:6
44,66:6
44,67:5
45,16:2
45,21:2
45,30:3
45,40:2
45,41:4
45,42:3
45,44:2
45,54:2
45,55:2
45,56:2
45,57:2
45,58:4
45,59:4
45,60:3
45,61:4
45,62:4
45,63:3
45,64:4
45,65:4
45,66:4
45,67:3
46,16:2
46,21:2
46,30:3
46,40:2
46,41:4
46,42:3
46,44:2
46,54:2
46,55:2
46,56:2
46,57:2
46,58:4
46,59:4
46,60:3
46,61:4
46,62:4
46,63:3
46,64:4
46,65:4
46,66:4
46,67:3
47,16:2
47,21:2
47,30:3
47,40:2
47,41:4
47,42:3
47,44:2
47,48:3
47,49:3
47,54:2
47,55:2
47,56:2
47,57:2
47,58:4
47,59:4
47,60:3
47,61:4
47,62:4
47,63:3
47,64:4
47,65:4
47,66:4
47,67:3
48,16:1
48,21:1
48,40:1
48,41:7
48,44:1
48,52:6
48,53:6
48,54:1
48,55:1
48,56:1
48,57:1
48,58:7
48,59:7
48,60:6
48,61:7
48,62:7
48,64:7
48,65:7
48,66:7
48,67:6
48,68:6
48,69:6
48,70:1
48,71:1
48,72:1
48,73:1
48,74:3
48,75:3
48,76:3
48,77:3
48,78:1
48,79:1
48,80:1
48,81:1
48,82:1
48,85:1
49,16:1
49,21:1
49,40:1
49,41:7
49,44:1
49,54:1
49,55:1
49,56:1
49,57:1
49,58:7
49,59:7
49,60:6
49,61:7
49,62:7
49,64:7
49,65:7
49,66:7
49,67:6
50,16:1
50,21:1
50,40:1
50,41:7
50,44:1
50,54:1
50,55:1
50,56:1
50,57:1
50,58:7
50,59:7
50,60:6
50,61:7
50,62:7
50,64:7
50,65:7
50,66:7
50,67:6
51,16:1
51,21:1
51,40:1
51,41:7
51,44:1
51,52:6
51,54:1
51,55:1
51,56:1
51,57:1
51,58:7
51,59:7
51,60:6
51,61:7
51,62:7
51,64:7
51,65:7
51,66:7
51,67:6
52,16:5
52,21:5
52,30:6
52,41:1
52,42:6
52,48:6
52,54:5
52,55:5
52,56:5
52,57:5
52,58:1
52,59:1
52,61:1
52,62:1
52,63:6
52,64:1
52,65:1
52,66:1
53,16:5
53,21:5
53,30:6
53,48:6
53,54:5
53,55:5
53,56:5
53,57:5
53,58:1
53,59:1
53,61:1
53,62:1
53,63:6
53,64:1
53,65:1
53,66:1
53,70:7
53,71:7
54,25:3
54,26:4
54,27:3
54,28:1
54,29:4
54,31:4
54,32:4
54,33:1
54,34:1
54,35:3
54,36:3
54,37:5
54,38:5
54,39:2
54,41:6
54,42:1
54,43:2
54,45:2
54,46:2
54,47:2
54,48:1
54,49:1
54,50:1
54,51:1
54,52:5
54,53:5
54,68:5
54,69:5
54,70:2
54,71:2
54,72:2
54,80:2
55,25:3
55,26:4
55,27:3
55,28:1
55,29:4
55,31:4
55,32:4
55,33:1
55,34:1
55,35:3
55,36:3
55,37:5
55,38:5
55,39:2
55,41:6
55,42:1
55,43:2
55,45:2
55,46:2
55,47:2
55,48:1
55,49:1
55,50:1
55,51:1
55,52:5
55,53:5
55,68:5
55,69:5
55,70:2
55,71:2
55,72:2
55,80:2
56,25:3
56,26:4
56,27:3
56,28:1
56,29:4
56,31:4
56,32:4
56,33:1
56,34:1
56,35:3
56,36:3
56,37:5
56,38:5
56,39:2
56,41:6
56,42:1
56,43:2
56,45:2
56,46:2
56,47:2
56,48:1
56,49:1
56,50:1
56,51:1
56,52:5
56,53:5
56,68:5
56,69:5
56,70:2
56,71:2
56,72:2
56,80:2
57,25:3
57,26:4
57,27:3
57,28:1
57,29:4
57,31:4
57,32:4
57,33:1
57,34:1
57,35:3
57,36:3
57,37:5
57,38:5
57,39:2
57,41:6
57,42:1
57,43:2
57,45:2
57,46:2
57,47:2
57,48:1
57,49:1
57,50:1
57,51:1
57,52:5
57,53:5
57,58:6
57,59:6
57,60:5
57,61:6
57,62:6
57,63:1
57,64:6
57,65:6
57,66:6
57,68:5
57,69:5
57,70:2
57,71:2
57,72:2
57,80:2
58,19:6
58,22:6
58,23:6
58,24:6
58,25:3
58,26:2
58,27:3
58,28:5
58,29:2
58,31:2
58,32:2
58,33:7
58,34:7
58,35:3
58,36:3
58,37:1
58,38:1
58,39:4
58,40:6
58,42:7
58,43:4
58,44:6
58,45:4
58,46:4
58,47:4
58,48:7
58,49:7
58,50:7
58,51:7
58,52:1
58,53:1
58,60:1
58,63:7
58,67:1
58,68:1
58,69:1
58,70:8
58,71:8
58,72:8
58,80:8
59,19:6
59,22:6
59,23:6
59,24:6
59,25:3
59,26:2
59,27:3
59,28:5
59,29:2
59,31:2
59,32:2
59,33:7
59,34:7
59,35:3
59,36:3
59,37:1
59,38:1
59,39:4
59,40:6
59,42:7
59,43:4
59,44:6
59,45:4
59,46:4
59,47:4
59,48:7
59,49:7
59,50:7
59,51:7
59,52:1
59,53:1
59,60:1
59,63:7
59,67:1
59,68:1
59,69:1
59,70:8
59,71:8
59,72:8
59,80:8
60,19:5
60,22:5
60,23:5
60,24:5
60,25:2
60,26:1
60,27:2
60,28:4
60,29:1
60,31:1
60,32:1
60,33:6
60,34:6
60,35:2
60,36:2
60,39:3
60,40:5
60,41:1
60,42:6
60,43:3
60,44:5
60,45:3
60,46:3
60,47:3
60,48:6
60,49:6
60,50:6
60,51:6
60,58:1
60,59:1
60,61:1
60,62:1
60,63:6
60,64:1
60,65:1
60,66:1
60,70:7
60,71:7
60,72:7
60,80:7
61,19:6
61,22:6
61,23:6
61,24:6
61,25:3
61,26:2
61,27:3
61,28:5
61,29:2
61,31:2
61,32:2
61,33:7
61,34:7
61,35:3
61,36:3
61,37:1
61,38:1
61,39:4
61,40:6
61,42:7
61,43:4
61,44:6
61,45:4
61,46:4
61,47:4
61,48:7
61,49:7
61,50:7
61,51:7
61,52:1
61,53:1
61,60:1
61,63:7
61,67:1
61,68:1
61,69:1
61,70:8
61,71:8
61,72:8
61,80:8
62,19:6
62,22:6
62,23:6
62,24:6
62,25:3
62,26:2
62,27:3
62,28:5
62,29:2
62,31:2
62,32:2
62,33:7
62,34:7
62,35:3
62,36:3
62,37:1
62,38:1
62,39:4
62,40:6
62,42:7
62,43:4
62,44:6
62,45:4
62,46:4
62,47:4
62,48:7
62,49:7
62,50:7
62,51:7
62,52:1
62,53:1
62,60:1
62,63:7
62,67:1
62,68:1
62,69:1
62,70:8
62,71:8
62,72:8
62,80:8
63,19:1
63,22:1
63,23:1
63,24:1
63,25:4
63,26:5
63,27:4
63,28:2
63,29:5
63,31:5
63,32:5
63,35:4
63,36:4
63,37:6
63,38:6
63,39:3
63,40:1
63,41:7
63,43:3
63,44:1
63,45:3
63,46:3
63,47:3
63,52:6
63,53:6
63,58:7
63,59:7
63,60:6
63,61:7
63,62:7
63,64:7
63,65:7
63,66:7
63,67:6
63,68:6
63,69:6
63,70:1
63,71:1
63,72:1
63,80:1
64,19:6
64,22:6
64,23:6
64,24:6
64,25:3
64,26:2
64,27:3
64,28:5
64,29:2
64,31:2
64,32:2
64,33:7
64,34:7
64,35:3
64,36:3
64,37:1
64,38:1
64,39:4
64,40:6
64,42:7
64,43:4
64,44:6
64,45:4
64,46:4
64,47:4
64,48:7
64,49:7
64,50:7
64,51:7
64,52:1
64,53:1
64,60:1
64,63:7
64,67:1
64,68:1
64,69:1
64,70:8
64,71:8
64,72:8
64,80:8
65,19:6
65,22:6
65,23:6
65,24:6
65,25:3
65,26:2
65,27:3
65,28:5
65,29:2
65,31:2
65,32:2
65,33:7
65,34:7
65,35:3
65,36:3
65,37:1
65,38:1
65,39:4
65,40:6
65,42:7
65,43:4
65,44:6
65,45:4
65,46:4
65,47:4
65,48:7
65,49:7
65,50:7
65,51:7
65,52:1
65,53:1
65,60:1
65,63:7
65,67:1
65,68:1
65,69:1
65,70:8
65,71:8
65,72:8
65,80:8
66,19:6
66,22:6
66,23:6
66,24:6
66,25:3
66,26:2
66,27:3
66,28:5
66,29:2
66,31:2
66,32:2
66,33:7
66,34:7
66,35:3
66,36:3
66,37:1
66,38:1
66,39:4
66,40:6
66,42:7
66,43:4
66,44:6
66,45:4
66,46:4
66,47:4
66,48:7
66,49:7
66,50:7
66,51:7
66,52:1
66,53:1
66,60:1
66,63:7
66,67:1
66,68:1
66,69:1
66,70:8
66,71:8
66,72:8
66,80:8
67,19:5
67,22:5
67,23:5
67,24:5
67,25:2
67,26:1
67,27:2
67,28:4
67,29:1
67,31:1
67,32:1
67,33:6
67,34:6
67,35:2
67,36:2
67,39:3
67,40:5
67,41:1
67,42:6
67,43:3
67,44:5
67,45:3
67,46:3
67,47:3
67,48:6
67,49:6
67,50:6
67,51:6
67,70:7
67,71:7
67,72:7
67,73:7
67,80:7
68,16:5
68,21:5
68,30:6
68,48:6
68,54:5
68,55:5
68,56:5
68,57:5
68,58:1
68,59:1
68,61:1
68,62:1
68,63:6
68,64:1
68,65:1
68,66:1
68,70:7
68,71:7
68,72:7
68,73:7
68,74:3
68,75:3
68,76:3
68,77:3
69,16:5
69,21:5
69,30:6
69,48:6
69,54:5
69,55:5
69,56:5
69,57:5
69,58:1
69,59:1
69,61:1
69,62:1
69,63:6
69,64:1
69,65:1
69,66:1
69,70:7
69,71:7
69,72:7
69,73:7
69,74:3
69,75:3
69,76:3
69,77:3
70,16:2
70,21:2
70,30:1
70,48:1
70,54:2
70,55:2
70,56:2
70,57:2
70,58:8
70,59:8
70,60:7
70,61:8
70,62:8
70,63:1
70,64:8
70,65:8
70,66:8
70,67:7
70,68:7
70,69:7
70,74:4
70,75:4
70,76:4
70,77:4
71,16:2
71,21:2
71,30:1
71,48:1
71,54:2
71,55:2
71,56:2
71,57:2
71,58:8
71,59:8
71,60:7
71,61:8
71,62:8
71,63:1
71,64:8
71,65:8
71,66:8
71,67:7
71,68:7
71,69:7
72,16:2
72,21:2
72,30:1
72,48:1
72,54:2
72,55:2
72,56:2
72,57:2
72,58:8
72,59:8
72,60:7
72,61:8
72,62:8
72,63:1
72,64:8
72,65:8
72,66:8
72,67:7
72,74:4
72,75:4
72,76:4
72,77:4
72,78:2
73,48:1
73,68:7
73,69:7
73,74:4
74,48:3
74,68:3
74,69:3
74,70:4
74,72:4
74,80:4
75,48:3
75,68:3
75,69:3
75,70:4
75,72:4
75,80:4
76,48:3
76,68:3
76,69:3
76,70:4
76,72:4
76,78:2
76,79:2
76,80:4
76,81:2
77,48:3
77,68:3
77,69:3
77,70:4
77,72:4
77,78:2
77,80:4
78,48:1
78,76:2
78,80:2
79,48:1
79,76:2
79,80:2
80,16:2
80,21:2
80,30:1
80,48:1
80,54:2
80,55:2
80,56:2
80,57:2
80,58:8
80,59:8
80,60:7
80,61:8
80,62:8
80,63:1
80,64:8
80,65:8
80,66:8
80,67:7
80,74:4
80,75:4
80,76:4
80,77:4
80,78:2
80,79:2
80,81:2
81,48:1
81,84:1
82,48:1
82,83:1
82,84:1
83,85:1
84,82:1
84,85:1
85,48:1
85,83:1
85,84:1
85,86:1

<setup times backward>
5,1:3
5,2:3
5,3:3
5,4:3
5,6:3
5,8:2
5,9:5
5,30:1
6,9:2
6,10:2
7,1:3
7,2:3
7,3:3
7,4:3
7,6:3
7,8:2
7,9:5
7,10:5
7,30:1
8,1:1
8,2:1
8,3:1
8,4:1
8,6:1
8,9:3
8,10:3
8,14:3
8,15:3
11,1:3
11,2:3
11,3:3
11,4:3
11,6:3
11,8:2
11,9:5
11,10:5
11,30:1
12,1:3
12,2:3
12,3:3
12,4:3
12,6:3
12,8:2
12,9:5
12,10:5
12,30:1
13,1:3
13,2:3
13,3:3
13,4:3
13,6:3
13,8:2
13,9:5
13,10:5
13,30:1
16,1:1
16,2:1
16,3:1
16,4:1
16,6:1
16,9:3
16,10:3
16,14:3
16,15:3
16,25:3
16,26:4
16,27:3
16,28:1
16,29:4
16,31:4
16,32:4
16,35:3
16,36:3
16,37:5
16,38:5
16,39:2
16,41:6
16,43:2
16,45:2
16,46:2
16,47:2
16,52:5
16,53:5
16,68:5
16,69:5
17,1:1
17,2:1
17,3:1
17,4:1
17,6:1
17,9:3
17,10:3
17,14:3
17,15:3
18,1:1
18,2:1
18,3:1
18,4:1
18,6:1
18,9:3
18,10:3
18,14:3
18,15:3
19,1:1
19,2:1
19,3:1
19,4:1
19,6:1
19,9:3
19,10:3
19,14:3
19,15:3
19,28:1
19,58:6
19,59:6
19,60:5
19,61:6
19,62:6
19,64:6
19,65:6
19,66:6
19,67:5
20,1:1
20,2:1
20,3:1
20,4:1
20,6:1
20,9:3
20,10:3
20,14:3
20,15:3
20,25:3
20,26:4
20,27:3
21,1:1
21,2:1
21,3:1
21,4:1
21,6:1
21,9:3
21,10:3
21,14:3
21,15:3
21,25:3
21,26:4
21,27:3
21,28:1
21,29:4
21,31:4
21,32:4
21,35:3
21,36:3
21,37:5
21,38:5
21,39:2
21,41:6
21,43:2
21,45:2
21,46:2
21,47:2
21,52:5
21,53:5
21,68:5
21,69:5
22,1:1
22,2:1
22,3:1
22,4:1
22,6:1
22,9:3
22,10:3
22,14:3
22,15:3
22,28:1
22,58:6
22,59:6
22,60:5
22,61:6
22,62:6
22,64:6
22,65:6
22,66:6
22,67:5
23,1:1
23,2:1
23,3:1
23,4:1
23,6:1
23,9:3
23,10:3
23,14:3
23,15:3
23,28:1
23,58:6
23,59:6
23,60:5
23,61:6
23,62:6
23,64:6
23,65:6
23,66:6
23,67:5
24,1:1
24,2:1
24,3:1
24,4:1
24,6:1
24,9:3
24,10:3
24,14:3
24,15:3
24,28:1
24,58:6
24,59:6
24,60:5
24,61:6
24,62:6
24,64:6
24,65:6
24,66:6
24,67:5
25,58:3
25,59:3
25,60:2
25,61:3
25,62:3
25,64:3
25,65:3
25,66:3
25,67:2
26,58:2
26,59:2
26,60:1
26,61:2
26,62:2
26,64:2
26,65:2
26,66:2
26,67:1
27,26:1
27,29:1
27,31:1
27,32:1
27,58:3
27,59:3
27,60:2
27,61:3
27,62:3
27,64:3
27,65:3
27,66:3
27,67:2
28,9:2
28,10:2
28,14:2
28,15:2
28,25:2
28,26:3
28,27:2
28,58:5
28,59:5
28,60:4
28,61:5
28,62:5
28,64:5
28,65:5
28,66:5
28,67:4
29,58:2
29,59:2
29,60:1
29,61:2
29,62:2
29,64:2
29,65:2
29,66:2
29,67:1
30,1:2
30,2:2
30,3:2
30,4:2
30,6:2
30,8:1
30,9:4
30,10:4
30,14:4
30,15:4
30,16:1
30,17:1
30,18:1
30,19:1
30,20:1
30,21:1
30,22:1
30,23:1
30,24:1
30,25:4
30,26:5
30,27:4
30,28:2
30,29:5
30,31:5
30,32:5
30,35:4
30,36:4
30,37:6
30,38:6
30,39:3
30,40:1
30,41:7
30,43:3
30,44:1
30,45:3
30,46:3
30,47:3
30,52:6
30,53:6
30,68:6
30,69:6
31,58:2
31,59:2
31,60:1
31,61:2
31,62:2
31,64:2
31,65:2
31,66:2
31,67:1
32,58:2
32,59:2
32,60:1
32,61:2
32,62:2
32,64:2
32,65:2
32,66:2
32,67:1
33,1:2
33,2:2
33,3:2
33,4:2
33,6:2
33,8:1
33,9:4
33,10:4
33,14:4
33,15:4
33,16:1
33,17:1
33,18:1
33,19:1
33,20:1
33,21:1
33,22:1
33,23:1
33,24:1
33,25:4
33,26:5
33,27:4
33,28:2
33,29:5
33,31:5
33,32:5
33,54:1
33,55:1
33,56:1
33,57:1
33,58:7
33,59:7
33,60:6
33,61:7
33,62:7
33,64:7
33,65:7
33,66:7
33,67:6
34,1:2
34,2:2
34,3:2
34,4:2
34,6:2
34,8:1
34,9:4
34,10:4
34,14:4
34,15:4
34,16:1
34,17:1
34,18:1
34,19:1
34,20:1
34,21:1
34,22:1
34,23:1
34,24:1
34,25:4
34,26:5
34,27:4
34,28:2
34,29:5
34,31:5
34,32:5
34,54:1
34,55:1
34,56:1
34,57:1
34,58:7
34,59:7
34,60:6
34,61:7
34,62:7
34,64:7
34,65:7
34,66:7
34,67:6
35,26:1
35,29:1
35,31:1
35,32:1
35,58:3
35,59:3
35,60:2
35,61:3
35,62:3
35,64:3
35,65:3
35,66:3
35,67:2
36,26:1
36,29:1
36,31:1
36,32:1
36,37:2
36,58:3
36,59:3
36,60:2
36,61:3
36,62:3
36,64:3
36,65:3
36,66:3
36,67:2
37,58:1
37,59:1
37,61:1
37,62:1
37,64:1
37,65:1
37,66:1
38,58:1
38,59:1
38,61:1
38,62:1
38,64:1
38,65:1
38,66:1
39,9:1
39,10:1
39,14:1
39,15:1
39,25:1
39,26:2
39,27:1
39,29:2
39,31:2
39,32:2
39,35:1
39,36:1
39,37:3
39,38:3
39,58:4
39,59:4
39,60:3
39,61:4
39,62:4
39,64:4
39,65:4
39,66:4
39,67:3
40,1:1
40,2:1
40,3:1
40,4:1
40,6:1
40,9:3
40,10:3
40,14:3
40,15:3
40,25:3
40,26:4
40,27:3
40,28:1
40,29:4
40,31:4
40,32:4
40,35:3
40,36:3
40,37:5
40,38:5
40,39:2
40,41:6
40,43:2
40,45:2
40,46:2
40,47:2
40,58:6
40,59:6
40,60:5
40,61:6
40,62:6
40,64:6
40,65:6
40,66:6
40,67:5
42,1:2
42,2:2
42,3:2
42,4:2
42,6:2
42,8:1
42,9:4
42,10:4
42,14:4
42,15:4
42,16:1
42,17:1
42,18:1
42,19:1
42,20:1
42,21:1
42,22:1
42,23:1
42,24:1
42,25:4
42,26:5
42,27:4
42,28:2
42,29:5
42,31:5
42,32:5
42,35:4
42,36:4
42,37:6
42,38:6
42,39:3
42,40:1
42,41:7
42,43:3
42,44:1
42,45:3
42,46:3
42,47:3
42,52:6
42,54:1
42,55:1
42,56:1
42,57:1
42,58:7
42,59:7
42,60:6
42,61:7
42,62:7
42,64:7
42,65:7
42,66:7
42,67:6
43,9:1
43,10:1
43,14:1
43,15:1
43,25:1
43,26:2
43,27:1
43,29:2
43,31:2
43,32:2
43,35:1
43,36:1
43,37:3
43,38:3
43,41:4
43,58:4
43,59:4
43,60:3
43,61:4
43,62:4
43,64:4
43,65:4
43,66:4
43,67:3
44,1:1
44,2:1
44,3:1
44,4:1
44,6:1
44,9:3
44,10:3
44,14:3
44,15:3
44,25:3
44,26:4
44,27:3
44,28:1
44,29:4
44,31:4
44,32:4
44,35:3
44,36:3
44,37:5
44,38:5
44,39:2
44,41:6
44,43:2
44,45:2
44,46:2
44,47:2
44,58:6
44,59:6
44,60:5
44,61:6
44,62:6
44,64:6
44,65:6
44,66:6
44,67:5
45,9:1
45,10:1
45,14:1
45,15:1
45,25:1
45,26:2
45,27:1
45,29:2
45,31:2
45,32:2
45,35:1
45,36:1
45,37:3
45,38:3
45,41:4
45,58:4
45,59:4
45,60:3
45,61:4
45,62:4
45,64:4
45,65:4
45,66:4
45,67:3
46,9:1
46,10:1
46,14:1
46,15:1
46,25:1
46,26:2
46,27:1
46,29:2
46,31:2
46,32:2
46,35:1
46,36:1
46,37:3
46,38:3
46,41:4
46,58:4
46,59:4
46,60:3
46,61:4
46,62:4
46,64:4
46,65:4
46,66:4
46,67:3
47,9:1
47,10:1
47,14:1
47,15:1
47,25:1
47,26:2
47,27:1
47,29:2
47,31:2
47,32:2
47,35:1
47,36:1
47,37:3
47,38:3
47,41:4
47,58:4
47,59:4
47,60:3
47,61:4
47,62:4
47,64:4
47,65:4
47,66:4
47,67:3
48,1:2
48,2:2
48,3:2
48,4:2
48,6:2
48,8:1
48,9:4
48,10:4
48,14:4
48,15:4
48,16:1
48,17:1
48,18:1
48,19:1
48,20:1
48,21:1
48,22:1
48,23:1
48,24:1
48,25:4
48,26:5
48,27:4
48,28:2
48,29:5
48,31:5
48,32:5
48,35:4
48,36:4
48,37:6
48,38:6
48,39:3
48,40:1
48,41:7
48,43:3
48,44:1
48,45:3
48,46:3
48,47:3
48,52:6
48,53:6
48,54:1
48,55:1
48,56:1
48,57:1
48,58:7
48,59:7
48,60:6
48,61:7
48,62:7
48,64:7
48,65:7
48,66:7
48,67:6
48,68:6
48,69:6
48,74:3
48,75:3
48,76:3
48,77:3
48,78:1
48,79:1
48,81:1
48,82:1
48,85:1
49,1:2
49,2:2
49,3:2
49,4:2
49,6:2
49,8:1
49,9:4
49,10:4
49,14:4
49,15:4
49,16:1
49,17:1
49,18:1
49,19:1
49,20:1
49,21:1
49,22:1
49,23:1
49,24:1
49,25:4
49,26:5
49,27:4
49,28:2
49,29:5
49,31:5
49,32:5
49,35:4
49,36:4
49,37:6
49,38:6
49,39:3
49,40:1
49,41:7
49,43:3
49,44:1
49,45:3
49,46:3
49,47:3
49,54:1
49,55:1
49,56:1
49,57:1
49,58:7
49,59:7
49,60:6
49,61:7
49,62:7
49,64:7
49,65:7
49,66:7
49,67:6
50,1:2
50,2:2
50,3:2
50,4:2
50,6:2
50,8:1
50,9:4
50,10:4
50,14:4
50,15:4
50,16:1
50,17:1
50,18:1
50,19:1
50,20:1
50,21:1
50,22:1
50,23:1
50,24:1
50,25:4
50,26:5
50,27:4
50,28:2
50,29:5
50,31:5
50,32:5
50,35:4
50,36:4
50,37:6
50,38:6
50,39:3
50,40:1
50,41:7
50,43:3
50,44:1
50,45:3
50,46:3
50,47:3
50,54:1
50,55:1
50,56:1
50,57:1
50,58:7
50,59:7
50,60:6
50,61:7
50,62:7
50,64:7
50,65:7
50,66:7
50,67:6
51,1:2
51,2:2
51,3:2
51,4:2
51,6:2
51,8:1
51,9:4
51,10:4
51,14:4
51,15:4
51,16:1
51,17:1
51,18:1
51,19:1
51,20:1
51,21:1
51,22:1
51,23:1
51,24:1
51,25:4
51,26:5
51,27:4
51,28:2
51,29:5
51,31:5
51,32:5
51,35:4
51,36:4
51,37:6
51,38:6
51,39:3
51,40:1
51,41:7
51,43:3
51,44:1
51,45:3
51,46:3
51,47:3
51,54:1
51,55:1
51,56:1
51,57:1
51,58:7
51,59:7
51,60:6
51,61:7
51,62:7
51,64:7
51,65:7
51,66:7
51,67:6
52,41:1
52,58:1
52,59:1
52,61:1
52,62:1
52,64:1
52,65:1
52,66:1
53,41:1
53,58:1
53,59:1
53,61:1
53,62:1
53,64:1
53,65:1
53,66:1
54,1:1
54,2:1
54,3:1
54,4:1
54,6:1
54,9:3
54,10:3
54,14:3
54,15:3
54,25:3
54,26:4
54,27:3
54,28:1
54,29:4
54,31:4
54,32:4
54,35:3
54,36:3
54,37:5
54,38:5
54,39:2
54,41:6
54,43:2
54,45:2
54,46:2
54,47:2
54,52:5
54,53:5
54,68:5
54,69:5
55,1:1
55,2:1
55,3:1
55,4:1
55,6:1
55,9:3
55,10:3
55,14:3
55,15:3
55,25:3
55,26:4
55,27:3
55,28:1
55,29:4
55,31:4
55,32:4
55,35:3
55,36:3
55,37:5
55,38:5
55,39:2
55,41:6
55,43:2
55,45:2
55,46:2
55,47:2
55,52:5
55,53:5
55,68:5
55,69:5
56,1:1
56,2:1
56,3:1
56,4:1
56,6:1
56,9:3
56,10:3
56,14:3
56,15:3
56,25:3
56,26:4
56,27:3
56,28:1
56,29:4
56,31:4
56,32:4
56,35:3
56,36:3
56,37:5
56,38:5
56,39:2
56,41:6
56,43:2
56,45:2
56,46:2
56,47:2
56,52:5
56,53:5
56,68:5
56,69:5
57,1:1
57,2:1
57,3:1
57,4:1
57,6:1
57,9:3
57,10:3
57,14:3
57,15:3
57,25:3
57,26:4
57,27:3
57,28:1
57,29:4
57,31:4
57,32:4
57,35:3
57,36:3
57,37:5
57,38:5
57,39:2
57,41:6
57,43:2
57,45:2
57,46:2
57,47:2
57,52:5
57,53:5
57,68:5
57,69:5
60,41:1
60,58:1
60,59:1
60,61:1
60,62:1
60,64:1
60,65:1
60,66:1
63,1:2
63,2:2
63,3:2
63,4:2
63,6:2
63,8:1
63,9:4
63,10:4
63,14:4
63,15:4
63,16:1
63,17:1
63,18:1
63,19:1
63,20:1
63,21:1
63,22:1
63,23:1
63,24:1
63,25:4
63,26:5
63,27:4
63,28:2
63,29:5
63,31:5
63,32:5
63,35:4
63,36:4
63,37:6
63,38:6
63,39:3
63,40:1
63,41:7
63,43:3
63,44:1
63,45:3
63,46:3
63,47:3
63,52:6
63,53:6
63,54:1
63,55:1
63,56:1
63,57:1
63,58:7
63,59:7
63,60:6
63,61:7
63,62:7
63,64:7
63,65:7
63,66:7
63,68:6
63,69:6
67,41:1
67,58:1
67,59:1
67,61:1
67,62:1
67,64:1
67,65:1
67,66:1
68,41:1
68,58:1
68,59:1
68,61:1
68,62:1
68,64:1
68,65:1
68,66:1
69,41:1
69,58:1
69,59:1
69,61:1
69,62:1
69,64:1
69,65:1
69,66:1
70,1:3
70,2:3
70,3:3
70,4:3
70,6:3
70,8:2
70,9:5
70,10:5
70,14:5
70,15:5
70,16:2
70,17:2
70,18:2
70,19:2
70,20:2
70,21:2
70,22:2
70,23:2
70,24:2
70,25:5
70,26:6
70,27:5
70,28:3
70,29:6
70,30:1
70,31:6
70,32:6
70,33:1
70,34:1
70,35:5
70,36:5
70,37:7
70,38:7
70,39:4
70,40:2
70,41:8
70,42:1
70,43:4
70,44:2
70,45:4
70,46:4
70,47:4
70,48:1
70,49:1
70,50:1
70,51:1
70,52:7
70,53:7
70,54:2
70,55:2
70,56:2
70,57:2
70,58:8
70,59:8
70,60:7
70,61:8
70,62:8
70,63:1
70,64:8
70,65:8
70,66:8
70,67:7
70,68:7
70,69:7
70,74:4
70,75:4
70,76:4
70,77:4
71,1:3
71,2:3
71,3:3
71,4:3
71,6:3
71,8:2
71,9:5
71,10:5
71,14:5
71,15:5
71,16:2
71,17:2
71,18:2
71,19:2
71,20:2
71,21:2
71,22:2
71,23:2
71,24:2
71,25:5
71,26:6
71,27:5
71,28:3
71,29:6
71,30:1
71,31:6
71,32:6
71,33:1
71,34:1
71,35:5
71,36:5
71,37:7
71,38:7
71,39:4
71,40:2
71,41:8
71,42:1
71,43:4
71,44:2
71,45:4
71,46:4
71,47:4
71,48:1
71,49:1
71,50:1
71,51:1
71,52:7
71,53:7
71,54:2
71,55:2
71,56:2
71,57:2
71,58:8
71,59:8
71,60:7
71,61:8
71,62:8
71,63:1
71,64:8
71,65:8
71,66:8
71,67:7
71,68:7
71,69:7
72,1:3
72,2:3
72,3:3
72,4:3
72,6:3
72,8:2
72,9:5
72,10:5
72,14:5
72,15:5
72,16:2
72,17:2
72,18:2
72,19:2
72,20:2
72,21:2
72,22:2
72,23:2
72,24:2
72,25:5
72,26:6
72,27:5
72,28:3
72,29:6
72,30:1
72,31:6
72,32:6
72,33:1
72,34:1
72,35:5
72,36:5
72,37:7
72,38:7
72,39:4
72,40:2
72,41:8
72,42:1
72,43:4
72,44:2
72,45:4
72,46:4
72,47:4
72,48:1
72,49:1
72,50:1
72,51:1
72,52:7
72,53:7
72,54:2
72,55:2
72,56:2
72,57:2
72,58:8
72,59:8
72,60:7
72,61:8
72,62:8
72,63:1
72,64:8
72,65:8
72,66:8
72,67:7
72,68:7
72,69:7
72,74:4
72,75:4
72,76:4
72,77:4
73,1:3
73,2:3
73,3:3
73,4:3
73,6:3
73,8:2
73,9:5
73,10:5
73,14:5
73,15:5
73,16:2
73,17:2
73,18:2
73,19:2
73,20:2
73,21:2
73,22:2
73,23:2
73,24:2
73,25:5
73,26:6
73,27:5
73,28:3
73,29:6
73,30:1
73,31:6
73,32:6
73,33:1
73,34:1
73,35:5
73,36:5
73,37:7
73,38:7
73,39:4
73,40:2
73,41:8
73,42:1
73,43:4
73,44:2
73,45:4
73,46:4
73,47:4
73,48:1
73,49:1
73,50:1
73,51:1
73,52:7
73,53:7
73,54:2
73,55:2
73,56:2
73,57:2
73,58:8
73,59:8
73,60:7
73,61:8
73,62:8
73,63:1
73,64:8
73,65:8
73,66:8
73,67:7
73,68:7
73,69:7
74,9:1
74,10:1
74,14:1
74,15:1
74,25:1
74,26:2
74,27:1
74,29:2
74,31:2
74,32:2
74,35:1
74,36:1
74,37:3
74,38:3
74,41:4
74,52:3
74,53:3
74,58:4
74,59:4
74,60:3
74,61:4
74,62:4
74,64:4
74,65:4
74,66:4
74,67:3
74,68:3
74,69:3
75,9:1
75,10:1
75,14:1
75,15:1
75,25:1
75,26:2
75,27:1
75,29:2
75,31:2
75,32:2
75,35:1
75,36:1
75,37:3
75,38:3
75,41:4
75,52:3
75,53:3
75,58:4
75,59:4
75,60:3
75,61:4
75,62:4
75,64:4
75,65:4
75,66:4
75,67:3
75,68:3
75,69:3
76,9:1
76,10:1
76,14:1
76,15:1
76,25:1
76,26:2
76,27:1
76,29:2
76,31:2
76,32:2
76,35:1
76,36:1
76,37:3
76,38:3
76,41:4
76,52:3
76,53:3
76,58:4
76,59:4
76,60:3
76,61:4
76,62:4
76,64:4
76,65:4
76,66:4
76,67:3
76,68:3
76,69:3
77,9:1
77,10:1
77,14:1
77,15:1
77,25:1
77,26:2
77,27:1
77,29:2
77,31:2
77,32:2
77,35:1
77,36:1
77,37:3
77,38:3
77,41:4
77,52:3
77,53:3
77,58:4
77,59:4
77,60:3
77,61:4
77,62:4
77,64:4
77,65:4
77,66:4
77,67:3
77,68:3
77,69:3
78,1:1
78,2:1
78,3:1
78,4:1
78,6:1
78,9:3
78,10:3
78,14:3
78,15:3
78,25:3
78,26:4
78,27:3
78,28:1
78,29:4
78,31:4
78,32:4
78,35:3
78,36:3
78,37:5
78,38:5
78,39:2
78,41:6
78,43:2
78,45:2
78,46:2
78,47:2
78,52:5
78,53:5
78,58:6
78,59:6
78,60:5
78,61:6
78,62:6
78,64:6
78,65:6
78,66:6
78,67:5
78,68:5
78,69:5
78,74:2
78,75:2
78,76:2
78,77:2
79,1:1
79,2:1
79,3:1
79,4:1
79,6:1
79,9:3
79,10:3
79,14:3
79,15:3
79,25:3
79,26:4
79,27:3
79,28:1
79,29:4
79,31:4
79,32:4
79,35:3
79,36:3
79,37:5
79,38:5
79,39:2
79,41:6
79,43:2
79,45:2
79,46:2
79,47:2
79,52:5
79,53:5
79,58:6
79,59:6
79,60:5
79,61:6
79,62:6
79,64:6
79,65:6
79,66:6
79,67:5
79,68:5
79,69:5
79,74:2
79,75:2
79,76:2
79,77:2
80,1:3
80,2:3
80,3:3
80,4:3
80,6:3
80,8:2
80,9:5
80,10:5
80,14:5
80,15:5
80,16:2
80,17:2
80,18:2
80,19:2
80,20:2
80,21:2
80,22:2
80,23:2
80,24:2
80,25:5
80,26:6
80,27:5
80,28:3
80,29:6
80,30:1
80,31:6
80,32:6
80,33:1
80,34:1
80,35:5
80,36:5
80,37:7
80,38:7
80,39:4
80,40:2
80,41:8
80,42:1
80,43:4
80,44:2
80,45:4
80,46:4
80,47:4
80,48:1
80,49:1
80,50:1
80,51:1
80,52:7
80,53:7
80,54:2
80,55:2
80,56:2
80,57:2
80,58:8
80,59:8
80,60:7
80,61:8
80,62:8
80,63:1
80,64:8
80,65:8
80,66:8
80,67:7
80,68:7
80,69:7
80,74:4
80,75:4
80,76:4
80,77:4
80,78:2
80,79:2
81,1:1
81,2:1
81,3:1
81,4:1
81,6:1
81,9:3
81,10:3
81,14:3
81,15:3
81,25:3
81,26:4
81,27:3
81,28:1
81,29:4
81,31:4
81,32:4
81,35:3
81,36:3
81,37:5
81,38:5
81,39:2
81,41:6
81,43:2
81,45:2
81,46:2
81,47:2
81,52:5
81,53:5
81,58:6
81,59:6
81,60:5
81,61:6
81,62:6
81,64:6
81,65:6
81,66:6
81,67:5
81,68:5
81,69:5
81,74:2
81,75:2
81,76:2
81,77:2
82,1:1
82,2:1
82,3:1
82,4:1
82,6:1
82,9:3
82,10:3
82,14:3
82,15:3
82,25:3
82,26:4
82,27:3
82,28:1
82,29:4
82,31:4
82,32:4
82,35:3
82,36:3
82,37:5
82,38:5
82,39:2
82,41:6
82,43:2
82,45:2
82,46:2
82,47:2
82,52:5
82,53:5
82,58:6
82,59:6
82,60:5
82,61:6
82,62:6
82,64:6
82,65:6
82,66:6
82,67:5
82,68:5
82,69:5
82,74:2
82,75:2
82,76:2
82,77:2
83,1:2
83,2:2
83,3:2
83,4:2
83,6:2
83,8:1
83,9:4
83,10:4
83,14:4
83,15:4
83,16:1
83,17:1
83,18:1
83,19:1
83,20:1
83,21:1
83,22:1
83,23:1
83,24:1
83,25:4
83,26:5
83,27:4
83,28:2
83,29:5
83,31:5
83,32:5
83,35:4
83,36:4
83,37:6
83,38:6
83,39:3
83,40:1
83,41:7
83,43:3
83,44:1
83,45:3
83,46:3
83,47:3
83,52:6
83,53:6
83,54:1
83,55:1
83,56:1
83,57:1
83,58:7
83,59:7
83,60:6
83,61:7
83,62:7
83,64:7
83,65:7
83,66:7
83,67:6
83,68:6
83,69:6
83,74:3
83,75:3
83,76:3
83,77:3
83,78:1
83,79:1
83,81:1
83,82:1
83,85:1
84,1:2
84,2:2
84,3:2
84,4:2
84,6:2
84,8:1
84,9:4
84,10:4
84,14:4
84,15:4
84,16:1
84,17:1
84,18:1
84,19:1
84,20:1
84,21:1
84,22:1
84,23:1
84,24:1
84,25:4
84,26:5
84,27:4
84,28:2
84,29:5
84,31:5
84,32:5
84,35:4
84,36:4
84,37:6
84,38:6
84,39:3
84,40:1
84,41:7
84,43:3
84,44:1
84,45:3
84,46:3
84,47:3
84,52:6
84,53:6
84,54:1
84,55:1
84,56:1
84,57:1
84,58:7
84,59:7
84,60:6
84,61:7
84,62:7
84,64:7
84,65:7
84,66:7
84,67:6
84,68:6
84,69:6
84,74:3
84,75:3
84,76:3
84,77:3
84,78:1
84,79:1
84,81:1
84,82:1
84,85:1
85,1:1
85,2:1
85,3:1
85,4:1
85,6:1
85,9:3
85,10:3
85,14:3
85,15:3
85,25:3
85,26:4
85,27:3
85,28:1
85,29:4
85,31:4
85,32:4
85,35:3
85,36:3
85,37:5
85,38:5
85,39:2
85,41:6
85,43:2
85,45:2
85,46:2
85,47:2
85,52:5
85,53:5
85,58:6
85,59:6
85,60:5
85,61:6
85,62:6
85,64:6
85,65:6
85,66:6
85,67:5
85,68:5
85,69:5
85,74:2
85,75:2
85,76:2
85,77:2
86,1:2
86,2:2
86,3:2
86,4:2
86,6:2
86,8:1
86,9:4
86,10:4
86,14:4
86,15:4
86,16:1
86,17:1
86,18:1
86,19:1
86,20:1
86,21:1
86,22:1
86,23:1
86,24:1
86,25:4
86,26:5
86,27:4
86,28:2
86,29:5
86,31:5
86,32:5
86,35:4
86,36:4
86,37:6
86,38:6
86,39:3
86,40:1
86,41:7
86,43:3
86,44:1
86,45:3
86,46:3
86,47:3
86,52:6
86,53:6
86,54:1
86,55:1
86,56:1
86,57:1
86,58:7
86,59:7
86,60:6
86,61:7
86,62:7
86,64:7
86,65:7
86,66:7
86,67:6
86,68:6
86,69:6
86,74:3
86,75:3
86,76:3
86,77:3
86,78:1
86,79:1
86,81:1
86,82:1
86,85:1
87,1:2
87,2:2
87,3:2
87,4:2
87,6:2
87,8:1
87,9:4
87,10:4
87,14:4
87,15:4
87,16:1
87,17:1
87,18:1
87,19:1
87,20:1
87,21:1
87,22:1
87,23:1
87,24:1
87,25:4
87,26:5
87,27:4
87,28:2
87,29:5
87,31:5
87,32:5
87,35:4
87,36:4
87,37:6
87,38:6
87,39:3
87,40:1
87,41:7
87,43:3
87,44:1
87,45:3
87,46:3
87,47:3
87,52:6
87,53:6
87,54:1
87,55:1
87,56:1
87,57:1
87,58:7
87,59:7
87,60:6
87,61:7
87,62:7
87,64:7
87,65:7
87,66:7
87,67:6
87,68:6
87,69:6
87,74:3
87,75:3
87,76:3
87,77:3
87,78:1
87,79:1
87,81:1
87,82:1
87,85:1
88,1:2
88,2:2
88,3:2
88,4:2
88,6:2
88,8:1
88,9:4
88,10:4
88,14:4
88,15:4
88,16:1
88,17:1
88,18:1
88,19:1
88,20:1
88,21:1
88,22:1
88,23:1
88,24:1
88,25:4
88,26:5
88,27:4
88,28:2
88,29:5
88,31:5
88,32:5
88,35:4
88,36:4
88,37:6
88,38:6
88,39:3
88,40:1
88,41:7
88,43:3
88,44:1
88,45:3
88,46:3
88,47:3
88,52:6
88,53:6
88,54:1
88,55:1
88,56:1
88,57:1
88,58:7
88,59:7
88,60:6
88,61:7
88,62:7
88,64:7
88,65:7
88,66:7
88,67:6
88,68:6
88,69:6
88,74:3
88,75:3
88,76:3
88,77:3
88,78:1
88,79:1
88,81:1
88,82:1
88,85:1
89,1:2
89,2:2
89,3:2
89,4:2
89,6:2
89,8:1
89,9:4
89,10:4
89,14:4
89,15:4
89,16:1
89,17:1
89,18:1
89,19:1
89,20:1
89,21:1
89,22:1
89,23:1
89,24:1
89,25:4
89,26:5
89,27:4
89,28:2
89,29:5
89,31:5
89,32:5
89,35:4
89,36:4
89,37:6
89,38:6
89,39:3
89,40:1
89,41:7
89,43:3
89,44:1
89,45:3
89,46:3
89,47:3
89,52:6
89,53:6
89,54:1
89,55:1
89,56:1
89,57:1
89,58:7
89,59:7
89,60:6
89,61:7
89,62:7
89,64:7
89,65:7
89,66:7
89,67:6
89,68:6
89,69:6
89,74:3
89,75:3
89,76:3
89,77:3
89,78:1
89,79:1
89,81:1
89,82:1
89,85:1

<end>

<optimal SALBP-1 value>
21


<rand seed>
467321153

